NAME 
ROWS
 N  OBJ
 L  ULC[0]  
 L  ULC[1]  
 L  ULC[2]  
 L  ULC[3]  
 L  ULC[4]  
 L  LLC[0]  
 L  LLC[1]  
 L  LLC[2]  
 L  LLC[3]  
 L  LLC[4]  
COLUMNS
    MARKER    'MARKER'                 'INTORG'
    X[0]      OBJ       -38
    X[0]      ULC[0]    43
    X[0]      ULC[1]    31
    X[0]      ULC[2]    52
    X[0]      ULC[3]    34
    X[0]      ULC[4]    92
    X[0]      LLC[0]    3
    X[0]      LLC[1]    14
    X[0]      LLC[2]    25
    X[0]      LLC[3]    60
    X[0]      LLC[4]    50
    X[1]      OBJ       28
    X[1]      ULC[0]    85
    X[1]      ULC[1]    8
    X[1]      ULC[2]    47
    X[1]      ULC[3]    4
    X[1]      ULC[4]    50
    X[1]      LLC[0]    51
    X[1]      LLC[1]    16
    X[1]      LLC[2]    4
    X[1]      LLC[3]    79
    X[1]      LLC[4]    81
    X[2]      OBJ       29
    X[2]      ULC[0]    42
    X[2]      ULC[1]    7
    X[2]      ULC[2]    66
    X[2]      ULC[3]    62
    X[2]      ULC[4]    86
    X[2]      LLC[0]    63
    X[2]      LLC[1]    79
    X[2]      LLC[2]    50
    X[2]      LLC[3]    44
    X[2]      LLC[4]    57
    X[3]      OBJ       -16
    X[3]      ULC[0]    98
    X[3]      ULC[1]    100
    X[3]      ULC[2]    13
    X[3]      ULC[3]    79
    X[3]      ULC[4]    61
    X[3]      LLC[0]    78
    X[3]      LLC[1]    62
    X[3]      LLC[2]    42
    X[3]      LLC[3]    20
    X[3]      LLC[4]    76
    X[4]      OBJ       8
    X[4]      ULC[0]    37
    X[4]      ULC[1]    32
    X[4]      ULC[2]    80
    X[4]      ULC[3]    54
    X[4]      ULC[4]    57
    X[4]      LLC[0]    91
    X[4]      LLC[1]    52
    X[4]      LLC[2]    23
    X[4]      LLC[3]    90
    X[4]      LLC[4]    43
    X[5]      OBJ       4
    X[5]      ULC[0]    74
    X[5]      ULC[1]    64
    X[5]      ULC[2]    20
    X[5]      ULC[3]    90
    X[5]      ULC[4]    10
    X[5]      LLC[0]    37
    X[5]      LLC[1]    50
    X[5]      LLC[2]    54
    X[5]      LLC[3]    6
    X[5]      LLC[4]    23
    X[6]      OBJ       38
    X[6]      ULC[0]    62
    X[6]      ULC[1]    29
    X[6]      ULC[2]    56
    X[6]      ULC[3]    87
    X[6]      ULC[4]    63
    X[6]      LLC[0]    24
    X[6]      LLC[1]    10
    X[6]      LLC[2]    8
    X[6]      LLC[3]    19
    X[6]      LLC[4]    4
    X[7]      OBJ       11
    X[7]      ULC[0]    16
    X[7]      ULC[1]    77
    X[7]      ULC[2]    25
    X[7]      ULC[3]    75
    X[7]      ULC[4]    38
    X[7]      LLC[0]    56
    X[7]      LLC[1]    10
    X[7]      LLC[2]    31
    X[7]      LLC[3]    13
    X[7]      LLC[4]    36
    X[8]      OBJ       -41
    X[8]      ULC[0]    35
    X[8]      ULC[1]    67
    X[8]      ULC[2]    99
    X[8]      ULC[3]    14
    X[8]      ULC[4]    41
    X[8]      LLC[0]    93
    X[8]      LLC[1]    29
    X[8]      LLC[2]    65
    X[8]      LLC[3]    9
    X[8]      LLC[4]    68
    X[9]      OBJ       40
    X[9]      ULC[0]    98
    X[9]      ULC[1]    21
    X[9]      ULC[2]    22
    X[9]      ULC[3]    8
    X[9]      ULC[4]    91
    X[9]      LLC[0]    3
    X[9]      LLC[1]    55
    X[9]      LLC[2]    77
    X[9]      LLC[3]    81
    X[9]      LLC[4]    34
    Y[0]      OBJ       40
    Y[0]      ULC[0]    47
    Y[0]      ULC[1]    17
    Y[0]      ULC[2]    32
    Y[0]      ULC[3]    64
    Y[0]      ULC[4]    75
    Y[0]      LLC[0]    92
    Y[0]      LLC[1]    37
    Y[0]      LLC[2]    76
    Y[0]      LLC[3]    65
    Y[0]      LLC[4]    44
    Y[1]      OBJ       40
    Y[1]      ULC[0]    45
    Y[1]      ULC[1]    82
    Y[1]      ULC[2]    1
    Y[1]      ULC[3]    16
    Y[1]      ULC[4]    47
    Y[1]      LLC[0]    97
    Y[1]      LLC[1]    8
    Y[1]      LLC[2]    68
    Y[1]      LLC[3]    77
    Y[1]      LLC[4]    89
    Y[2]      OBJ       19
    Y[2]      ULC[0]    89
    Y[2]      ULC[1]    79
    Y[2]      ULC[2]    37
    Y[2]      ULC[3]    90
    Y[2]      ULC[4]    31
    Y[2]      LLC[0]    95
    Y[2]      LLC[1]    64
    Y[2]      LLC[2]    19
    Y[2]      LLC[3]    2
    Y[2]      LLC[4]    35
    Y[3]      OBJ       -38
    Y[3]      ULC[0]    14
    Y[3]      ULC[1]    2
    Y[3]      ULC[2]    56
    Y[3]      ULC[3]    61
    Y[3]      ULC[4]    38
    Y[3]      LLC[0]    5
    Y[3]      LLC[1]    35
    Y[3]      LLC[2]    77
    Y[3]      LLC[3]    6
    Y[3]      LLC[4]    88
    Y[4]      OBJ       -46
    Y[4]      ULC[0]    50
    Y[4]      ULC[1]    77
    Y[4]      ULC[2]    66
    Y[4]      ULC[3]    42
    Y[4]      ULC[4]    92
    Y[4]      LLC[0]    42
    Y[4]      LLC[1]    66
    Y[4]      LLC[2]    56
    Y[4]      LLC[3]    38
    Y[4]      LLC[4]    92
    Y[5]      OBJ       -23
    Y[5]      ULC[0]    58
    Y[5]      ULC[1]    2
    Y[5]      ULC[2]    31
    Y[5]      ULC[3]    21
    Y[5]      ULC[4]    85
    Y[5]      LLC[0]    41
    Y[5]      LLC[1]    62
    Y[5]      LLC[2]    46
    Y[5]      LLC[3]    33
    Y[5]      LLC[4]    75
    Y[6]      OBJ       38
    Y[6]      ULC[0]    61
    Y[6]      ULC[1]    70
    Y[6]      ULC[2]    72
    Y[6]      ULC[3]    43
    Y[6]      ULC[4]    73
    Y[6]      LLC[0]    32
    Y[6]      LLC[1]    8
    Y[6]      LLC[2]    62
    Y[6]      LLC[3]    51
    Y[6]      LLC[4]    98
    Y[7]      OBJ       20
    Y[7]      ULC[0]    60
    Y[7]      ULC[1]    17
    Y[7]      ULC[2]    17
    Y[7]      ULC[3]    7
    Y[7]      ULC[4]    77
    Y[7]      LLC[0]    15
    Y[7]      LLC[1]    50
    Y[7]      LLC[2]    91
    Y[7]      LLC[3]    93
    Y[7]      LLC[4]    29
    Y[8]      OBJ       49
    Y[8]      ULC[0]    73
    Y[8]      ULC[1]    34
    Y[8]      ULC[2]    25
    Y[8]      ULC[3]    79
    Y[8]      ULC[4]    28
    Y[8]      LLC[0]    52
    Y[8]      LLC[1]    83
    Y[8]      LLC[2]    55
    Y[8]      LLC[3]    19
    Y[8]      LLC[4]    19
    Y[9]      OBJ       22
    Y[9]      ULC[0]    16
    Y[9]      ULC[1]    91
    Y[9]      ULC[2]    57
    Y[9]      ULC[3]    56
    Y[9]      ULC[4]    66
    Y[9]      LLC[0]    37
    Y[9]      LLC[1]    81
    Y[9]      LLC[2]    55
    Y[9]      LLC[3]    48
    Y[9]      LLC[4]    31
    MARKER    'MARKER'                 'INTEND'
RHS
    RHS1      ULC[0]    827
    RHS1      ULC[1]    680
    RHS1      ULC[2]    655
    RHS1      ULC[3]    739
    RHS1      ULC[4]    900
    RHS1      LLC[0]    584
    RHS1      LLC[1]    618
    RHS1      LLC[2]    922
    RHS1      LLC[3]    523
    RHS1      LLC[4]    586
BOUNDS
 BV BND1      X[0]    
 BV BND1      X[1]    
 BV BND1      X[2]    
 BV BND1      X[3]    
 BV BND1      X[4]    
 BV BND1      X[5]    
 BV BND1      X[6]    
 BV BND1      X[7]    
 BV BND1      X[8]    
 BV BND1      X[9]    
 BV BND1      Y[0]    
 BV BND1      Y[1]    
 BV BND1      Y[2]    
 BV BND1      Y[3]    
 BV BND1      Y[4]    
 BV BND1      Y[5]    
 BV BND1      Y[6]    
 BV BND1      Y[7]    
 BV BND1      Y[8]    
 BV BND1      Y[9]    
ENDATA
